c nIsolatedPIs 0
c maxPI 32
p cnf 219 562
c gate 33 12 28 0
12 -33 0
28 -33 0
-12 -28 33 0
c gate 34 -12 -28 0
-12 -34 0
-28 -34 0
12 28 34 0
c gate 35 -33 -34 0
-33 -35 0
-34 -35 0
33 34 35 0
c gate 36 -11 -27 0
-11 -36 0
-27 -36 0
11 27 36 0
c gate 37 -10 -26 0
-10 -37 0
-26 -37 0
10 26 37 0
c gate 38 9 25 0
9 -38 0
25 -38 0
-9 -25 38 0
c gate 39 8 24 0
8 -39 0
24 -39 0
-8 -24 39 0
c gate 40 -7 -23 0
-7 -40 0
-23 -40 0
7 23 40 0
c gate 41 -39 40 0
-39 -41 0
40 -41 0
39 -40 41 0
c gate 42 -9 -25 0
-9 -42 0
-25 -42 0
9 25 42 0
c gate 43 -8 -24 0
-8 -43 0
-24 -43 0
8 24 43 0
c gate 44 -42 -43 0
-42 -44 0
-43 -44 0
42 43 44 0
c gate 45 -41 44 0
-41 -45 0
44 -45 0
41 -44 45 0
c gate 46 2 18 0
2 -46 0
18 -46 0
-2 -18 46 0
c gate 47 1 17 0
1 -47 0
17 -47 0
-1 -17 47 0
c gate 48 -46 -47 0
-46 -48 0
-47 -48 0
46 47 48 0
c gate 49 -2 -18 0
-2 -49 0
-18 -49 0
2 18 49 0
c gate 50 -3 -19 0
-3 -50 0
-19 -50 0
3 19 50 0
c gate 51 -49 -50 0
-49 -51 0
-50 -51 0
49 50 51 0
c gate 52 -48 51 0
-48 -52 0
51 -52 0
48 -51 52 0
c gate 53 4 20 0
4 -53 0
20 -53 0
-4 -20 53 0
c gate 54 3 19 0
3 -54 0
19 -54 0
-3 -19 54 0
c gate 55 -53 -54 0
-53 -55 0
-54 -55 0
53 54 55 0
c gate 56 -52 55 0
-52 -56 0
55 -56 0
52 -55 56 0
c gate 57 -5 -21 0
-5 -57 0
-21 -57 0
5 21 57 0
c gate 58 -4 -20 0
-4 -58 0
-20 -58 0
4 20 58 0
c gate 59 -57 -58 0
-57 -59 0
-58 -59 0
57 58 59 0
c gate 60 -56 59 0
-56 -60 0
59 -60 0
56 -59 60 0
c gate 61 6 -22 0
6 -61 0
-22 -61 0
-6 22 61 0
c gate 62 -6 22 0
-6 -62 0
22 -62 0
6 -22 62 0
c gate 63 -61 -62 0
-61 -63 0
-62 -63 0
61 62 63 0
c gate 64 5 21 0
5 -64 0
21 -64 0
-5 -21 64 0
c gate 65 -63 -64 0
-63 -65 0
-64 -65 0
63 64 65 0
c gate 66 -60 65 0
-60 -66 0
65 -66 0
60 -65 66 0
c gate 67 -6 -22 0
-6 -67 0
-22 -67 0
6 22 67 0
c gate 68 -66 -67 0
-66 -68 0
-67 -68 0
66 67 68 0
c gate 69 -39 -43 0
-39 -69 0
-43 -69 0
39 43 69 0
c gate 70 -7 23 0
-7 -70 0
23 -70 0
7 -23 70 0
c gate 71 7 -23 0
7 -71 0
-23 -71 0
-7 23 71 0
c gate 72 -70 -71 0
-70 -72 0
-71 -72 0
70 71 72 0
c gate 73 69 -72 0
69 -73 0
-72 -73 0
-69 72 73 0
c gate 74 -68 73 0
-68 -74 0
73 -74 0
68 -73 74 0
c gate 75 45 -74 0
45 -75 0
-74 -75 0
-45 74 75 0
c gate 76 -38 -75 0
-38 -76 0
-75 -76 0
38 75 76 0
c gate 77 -37 -76 0
-37 -77 0
-76 -77 0
37 76 77 0
c gate 78 11 27 0
11 -78 0
27 -78 0
-11 -27 78 0
c gate 79 10 26 0
10 -79 0
26 -79 0
-10 -26 79 0
c gate 80 -78 -79 0
-78 -80 0
-79 -80 0
78 79 80 0
c gate 81 -77 80 0
-77 -81 0
80 -81 0
77 -80 81 0
c gate 82 -36 -81 0
-36 -82 0
-81 -82 0
36 81 82 0
c gate 83 35 82 0
35 -83 0
82 -83 0
-35 -82 83 0
c gate 84 -36 -78 0
-36 -84 0
-78 -84 0
36 78 84 0
c gate 85 10 -26 0
10 -85 0
-26 -85 0
-10 26 85 0
c gate 86 8 -24 0
8 -86 0
-24 -86 0
-8 24 86 0
c gate 87 -38 -42 0
-38 -87 0
-42 -87 0
38 42 87 0
c gate 88 -86 -87 0
-86 -88 0
-87 -88 0
86 87 88 0
c gate 89 -10 26 0
-10 -89 0
26 -89 0
10 -26 89 0
c gate 90 -9 25 0
-9 -90 0
25 -90 0
9 -25 90 0
c gate 91 -89 -90 0
-89 -91 0
-90 -91 0
89 90 91 0
c gate 92 -88 91 0
-88 -92 0
91 -92 0
88 -91 92 0
c gate 93 -85 -92 0
-85 -93 0
-92 -93 0
85 92 93 0
c gate 94 -61 -71 0
-61 -94 0
-71 -94 0
61 71 94 0
c gate 95 -2 18 0
-2 -95 0
18 -95 0
2 -18 95 0
c gate 96 -1 17 0
-1 -96 0
17 -96 0
1 -17 96 0
c gate 97 -95 -96 0
-95 -97 0
-96 -97 0
95 96 97 0
c gate 98 2 -18 0
2 -98 0
-18 -98 0
-2 18 98 0
c gate 99 3 -19 0
3 -99 0
-19 -99 0
-3 19 99 0
c gate 100 -98 -99 0
-98 -100 0
-99 -100 0
98 99 100 0
c gate 101 -97 100 0
-97 -101 0
100 -101 0
97 -100 101 0
c gate 102 -4 20 0
-4 -102 0
20 -102 0
4 -20 102 0
c gate 103 -3 19 0
-3 -103 0
19 -103 0
3 -19 103 0
c gate 104 -102 -103 0
-102 -104 0
-103 -104 0
102 103 104 0
c gate 105 -101 104 0
-101 -105 0
104 -105 0
101 -104 105 0
c gate 106 5 -21 0
5 -106 0
-21 -106 0
-5 21 106 0
c gate 107 4 -20 0
4 -107 0
-20 -107 0
-4 20 107 0
c gate 108 -106 -107 0
-106 -108 0
-107 -108 0
106 107 108 0
c gate 109 -105 108 0
-105 -109 0
108 -109 0
105 -108 109 0
c gate 110 -5 21 0
-5 -110 0
21 -110 0
5 -21 110 0
c gate 111 63 -110 0
63 -111 0
-110 -111 0
-63 110 111 0
c gate 112 -109 111 0
-109 -112 0
111 -112 0
109 -111 112 0
c gate 113 94 -112 0
94 -113 0
-112 -113 0
-94 112 113 0
c gate 114 -70 -113 0
-70 -114 0
-113 -114 0
70 113 114 0
c gate 115 -69 114 0
-69 -115 0
114 -115 0
69 -114 115 0
c gate 116 91 115 0
91 -116 0
115 -116 0
-91 -115 116 0
c gate 117 93 -116 0
93 -117 0
-116 -117 0
-93 116 117 0
c gate 118 -84 117 0
-84 -118 0
117 -118 0
84 -117 118 0
c gate 119 84 -117 0
84 -119 0
-117 -119 0
-84 117 119 0
c gate 120 -118 -119 0
-118 -120 0
-119 -120 0
118 119 120 0
c gate 121 93 -120 0
93 -121 0
-120 -121 0
-93 120 121 0
c gate 122 -15 -31 0
-15 -122 0
-31 -122 0
15 31 122 0
c gate 123 15 31 0
15 -123 0
31 -123 0
-15 -31 123 0
c gate 124 -122 -123 0
-122 -124 0
-123 -124 0
122 123 124 0
c gate 125 -14 -30 0
-14 -125 0
-30 -125 0
14 30 125 0
c gate 126 14 30 0
14 -126 0
30 -126 0
-14 -30 126 0
c gate 127 -125 -126 0
-125 -127 0
-126 -127 0
125 126 127 0
c gate 128 -13 -29 0
-13 -128 0
-29 -128 0
13 29 128 0
c gate 129 13 29 0
13 -129 0
29 -129 0
-13 -29 129 0
c gate 130 -33 -129 0
-33 -130 0
-129 -130 0
33 129 130 0
c gate 131 -83 130 0
-83 -131 0
130 -131 0
83 -130 131 0
c gate 132 -128 -131 0
-128 -132 0
-131 -132 0
128 131 132 0
c gate 133 127 -132 0
127 -133 0
-132 -133 0
-127 132 133 0
c gate 134 -125 -133 0
-125 -134 0
-133 -134 0
125 133 134 0
c gate 135 124 -134 0
124 -135 0
-134 -135 0
-124 134 135 0
c gate 136 -122 -135 0
-122 -136 0
-135 -136 0
122 135 136 0
c gate 137 127 -130 0
127 -137 0
-130 -137 0
-127 130 137 0
c gate 138 -126 -137 0
-126 -138 0
-137 -138 0
126 137 138 0
c gate 139 124 -138 0
124 -139 0
-138 -139 0
-124 138 139 0
c gate 140 -123 -139 0
-123 -140 0
-139 -140 0
123 139 140 0
c gate 141 -16 -32 0
-16 -141 0
-32 -141 0
16 32 141 0
c gate 142 16 32 0
16 -142 0
32 -142 0
-16 -32 142 0
c gate 143 -141 -142 0
-141 -143 0
-142 -143 0
141 142 143 0
c gate 144 140 143 0
140 -144 0
143 -144 0
-140 -143 144 0
c gate 145 136 144 0
136 -145 0
144 -145 0
-136 -144 145 0
c gate 146 -112 -145 0
-112 -146 0
-145 -146 0
112 145 146 0
c gate 147 -127 130 0
-127 -147 0
130 -147 0
127 -130 147 0
c gate 148 -137 -147 0
-137 -148 0
-147 -148 0
137 147 148 0
c gate 149 -127 132 0
-127 -149 0
132 -149 0
127 -132 149 0
c gate 150 -133 -149 0
-133 -150 0
-149 -150 0
133 149 150 0
c gate 151 -148 -150 0
-148 -151 0
-150 -151 0
148 150 151 0
c gate 152 148 150 0
148 -152 0
150 -152 0
-148 -150 152 0
c gate 153 -151 -152 0
-151 -153 0
-152 -153 0
151 152 153 0
c gate 154 -38 -79 0
-38 -154 0
-79 -154 0
38 79 154 0
c gate 155 -45 154 0
-45 -155 0
154 -155 0
45 -154 155 0
c gate 156 -36 -37 0
-36 -156 0
-37 -156 0
36 37 156 0
c gate 157 -155 156 0
-155 -157 0
156 -157 0
155 -156 157 0
c gate 158 -78 -157 0
-78 -158 0
-157 -158 0
78 157 158 0
c gate 159 -35 82 0
-35 -159 0
82 -159 0
35 -82 159 0
c gate 160 158 -159 0
158 -160 0
-159 -160 0
-158 159 160 0
c gate 161 35 -82 0
35 -161 0
-82 -161 0
-35 82 161 0
c gate 162 -158 -161 0
-158 -162 0
-161 -162 0
158 161 162 0
c gate 163 -160 -162 0
-160 -163 0
-162 -163 0
160 162 163 0
c gate 164 153 163 0
153 -164 0
163 -164 0
-153 -163 164 0
c gate 165 -140 -143 0
-140 -165 0
-143 -165 0
140 143 165 0
c gate 166 -144 -165 0
-144 -166 0
-165 -166 0
144 165 166 0
c gate 167 136 -143 0
136 -167 0
-143 -167 0
-136 143 167 0
c gate 168 -136 143 0
-136 -168 0
143 -168 0
136 -143 168 0
c gate 169 -167 -168 0
-167 -169 0
-168 -169 0
167 168 169 0
c gate 170 -166 169 0
-166 -170 0
169 -170 0
166 -169 170 0
c gate 171 166 -169 0
166 -171 0
-169 -171 0
-166 169 171 0
c gate 172 -124 138 0
-124 -172 0
138 -172 0
124 -138 172 0
c gate 173 -139 -172 0
-139 -173 0
-172 -173 0
139 172 173 0
c gate 174 -124 134 0
-124 -174 0
134 -174 0
124 -134 174 0
c gate 175 -135 -174 0
-135 -175 0
-174 -175 0
135 174 175 0
c gate 176 -173 -175 0
-173 -176 0
-175 -176 0
173 175 176 0
c gate 177 173 175 0
173 -177 0
175 -177 0
-173 -175 177 0
c gate 178 -128 -129 0
-128 -178 0
-129 -178 0
128 129 178 0
c gate 179 83 -178 0
83 -179 0
-178 -179 0
-83 178 179 0
c gate 180 -151 -179 0
-151 -180 0
-179 -180 0
151 179 180 0
c gate 181 -177 -180 0
-177 -181 0
-180 -181 0
177 180 181 0
c gate 182 -176 -181 0
-176 -182 0
-181 -182 0
176 181 182 0
c gate 183 -171 182 0
-171 -183 0
182 -183 0
171 -182 183 0
c gate 184 -170 -183 0
-170 -184 0
-183 -184 0
170 183 184 0
c gate 185 -164 -184 0
-164 -185 0
-184 -185 0
164 184 185 0
c gate 186 -74 -83 0
-74 -186 0
-83 -186 0
74 83 186 0
c gate 187 153 186 0
153 -187 0
186 -187 0
-153 -186 187 0
c gate 188 -185 -187 0
-185 -188 0
-187 -188 0
185 187 188 0
c gate 189 146 188 0
146 -189 0
188 -189 0
-146 -188 189 0
c gate 190 -72 112 0
-72 -190 0
112 -190 0
72 -112 190 0
c gate 191 -112 143 0
-112 -191 0
143 -191 0
112 -143 191 0
c gate 192 171 191 0
171 -192 0
191 -192 0
-171 -191 192 0
c gate 193 -190 -192 0
-190 -193 0
-192 -193 0
190 192 193 0
c gate 194 -189 193 0
-189 -194 0
193 -194 0
189 -193 194 0
c gate 195 -115 -194 0
-115 -195 0
-194 -195 0
115 194 195 0
c gate 196 69 94 0
69 -196 0
94 -196 0
-69 -94 196 0
c gate 197 114 196 0
114 -197 0
196 -197 0
-114 -196 197 0
c gate 198 -115 -197 0
-115 -198 0
-197 -198 0
115 197 198 0
c gate 199 -37 -79 0
-37 -199 0
-79 -199 0
37 79 199 0
c gate 200 -87 -199 0
-87 -200 0
-199 -200 0
87 199 200 0
c gate 201 -197 200 0
-197 -201 0
200 -201 0
197 -200 201 0
c gate 202 -198 -201 0
-198 -202 0
-201 -202 0
198 201 202 0
c gate 203 -195 -202 0
-195 -203 0
-202 -203 0
195 202 203 0
c gate 204 -121 203 0
-121 -204 0
203 -204 0
121 -203 204 0
c gate 205 -118 -204 0
-118 -205 0
-204 -205 0
118 204 205 0
c gate 206 -124 -127 0
-124 -206 0
-127 -206 0
124 127 206 0
c gate 207 -35 -143 0
-35 -207 0
-143 -207 0
35 143 207 0
c gate 208 -178 207 0
-178 -208 0
207 -208 0
178 -207 208 0
c gate 209 206 208 0
206 -209 0
208 -209 0
-206 -208 209 0
c gate 210 118 209 0
118 -210 0
209 -210 0
-118 -209 210 0
c gate 211 -205 -210 0
-205 -211 0
-210 -211 0
205 210 211 0
c gate 212 67 72 0
67 -212 0
72 -212 0
-67 -72 212 0
c gate 213 -68 -212 0
-68 -213 0
-212 -213 0
68 212 213 0
c gate 214 -211 213 0
-211 -214 0
213 -214 0
211 -213 214 0
c gate 215 83 -214 0
83 -215 0
-214 -215 0
-83 214 215 0
c gate 216 -163 213 0
-163 -216 0
213 -216 0
163 -213 216 0
c gate 217 -83 216 0
-83 -217 0
216 -217 0
83 -216 217 0
c gate 218 -211 217 0
-211 -218 0
217 -218 0
211 -217 218 0
c gate 219 -215 -218 0
-215 -219 0
-218 -219 0
215 218 219 0
c PO
-219 0
